1 1337
2 1220
4 1200
6 1143
35 1132
90 1128
160 1092
532 1089
569 1066



1 1354
2 1228
5 1222
6 1180
17 1169
24 1148
28 1082
771 1077



1 1409
2 1220
7 1215
9 1197
12 1179
36 1134
65 1117
144 1037



1 1377
2 1212
3 1192
9 1184
10 1169
25 1127
166 1123
292 1102
568 1072
714 1066



1 1302
3 1267
4 1241
5 1207
6 1206
9 1147
24 1113
32 1039



